44
 1 880 20
 2 301 7
 3 840 20
 4 533 13
 5 600 15
 6 78 2
 7 608 16
 8 407 11
 9 684 19
 10 525 15
 11 102 3
 12 33 1
 13 64 2
 14 620 20
 15 390 13
 16 348 12
 17 336 12
 18 135 5
 19 494 19
 20 50 2
 21 216 9
 22 414 18
 23 418 19
 24 84 4
 25 200 10
 26 171 9
 27 342 19
 28 68 4
 29 48 3
 30 240 16
 31 266 19
 32 91 7
 33 60 5
 34 77 7
 35 180 18
 36 18 2
 37 152 19
 38 91 13
 39 18 3
 40 55 11
 41 64 16
 42 9 3
 43 24 12
 44 15 15
660